rcpsp/heur_output_bi_constraints/Log=1/heurj120.txt
encoding rcpsp/j120.sm/j12017_3.sm nv: 6670350 nc: 13515125 enctime: 133.73
encoding rcpsp/j120.sm/j12017_3.sm nv: 1454355 nc: 2943851 enctime: 21.25
c File: j12017_3.smnaivebi1.wcnf
c timeout
c final solution cost: 132
c CPU time: 74.964156
s UNKNOWN

c File: j12017_3.smbi1.wcnf
c timeout
c final solution cost: 112
c CPU time: 62.844828
s UNKNOWN


rcpsp/heur_output_bi_constraints/Log=1/heurj120.txt
encoding rcpsp/j120.sm/j12017_4.sm nv: 7375148 nc: 14994131 enctime: 158.11
encoding rcpsp/j120.sm/j12017_4.sm nv: 1665356 nc: 3382355 enctime: 25.09
c File: j12017_4.smnaivebi1.wcnf
c timeout
c final solution cost: 241
c CPU time: 76.617188
s UNKNOWN

c File: j12017_4.smbi1.wcnf
c timeout
c final solution cost: 125
c CPU time: 63.294288
s UNKNOWN


rcpsp/heur_output_bi_constraints/Log=1/heurj120.txt
encoding rcpsp/j120.sm/j12017_5.sm nv: 6133560 nc: 12488336 enctime: 126.60
encoding rcpsp/j120.sm/j12017_5.sm nv: 1535760 nc: 3123956 enctime: 28.01
c File: j12017_5.smnaivebi1.wcnf
c timeout
c final solution cost: 180
c CPU time: 74.338989
s UNKNOWN

c File: j12017_5.smbi1.wcnf
c timeout
c final solution cost: 138
c CPU time: 63.053826
s UNKNOWN


rcpsp/heur_output_bi_constraints/Log=1/heurj120.txt
encoding rcpsp/j120.sm/j12017_6.sm nv: 5769162 nc: 11747005 enctime: 121.25
encoding rcpsp/j120.sm/j12017_6.sm nv: 1594950 nc: 3244693 enctime: 28.62
c File: j12017_6.smnaivebi1.wcnf
c timeout
c final solution cost: 278
c CPU time: 73.438508
s UNKNOWN

c File: j12017_6.smbi1.wcnf
c timeout
c final solution cost: 142
c CPU time: 63.153485
s UNKNOWN


rcpsp/heur_output_bi_constraints/Log=1/heurj120.txt
encoding rcpsp/j120.sm/j12017_7.sm nv: 6116320 nc: 12496456 enctime: 131.59
encoding rcpsp/j120.sm/j12017_7.sm nv: 1689100 nc: 3447796 enctime: 30.19
c File: j12017_7.smnaivebi1.wcnf
c timeout
c final solution cost: 259
c CPU time: 74.693803
s UNKNOWN

c File: j12017_7.smbi1.wcnf
c timeout
c final solution cost: 155
c CPU time: 63.470517
s UNKNOWN


rcpsp/heur_output_bi_constraints/Log=1/heurj120.txt
encoding rcpsp/j120.sm/j12017_8.sm nv: 6054645 nc: 12314908 enctime: 124.19
encoding rcpsp/j120.sm/j12017_8.sm nv: 1415620 nc: 2876323 enctime: 26.45
c File: j12017_8.smnaivebi1.wcnf
c timeout
c final solution cost: 165
c CPU time: 73.912698
s UNKNOWN

c File: j12017_8.smbi1.wcnf
c timeout
c final solution cost: 131
c CPU time: 62.880187
s UNKNOWN


rcpsp/heur_output_bi_constraints/Log=1/heurj120.txt
encoding rcpsp/j120.sm/j12017_9.sm nv: 5677470 nc: 11567864 enctime: 120.46
encoding rcpsp/j120.sm/j12017_9.sm nv: 1513395 nc: 3080684 enctime: 27.74
c File: j12017_9.smnaivebi1.wcnf
c timeout
c final solution cost: 609
c CPU time: 73.348530
s UNKNOWN

c File: j12017_9.smbi1.wcnf
c timeout
c final solution cost: 142
c CPU time: 63.095996
s UNKNOWN


rcpsp/heur_output_bi_constraints/Log=1/heurj120.txt
encoding rcpsp/j120.sm/j1201_7.sm nv: 638608 nc: 1573349 enctime: 32.53
encoding rcpsp/j120.sm/j1201_7.sm nv: 130016 nc: 316765 enctime: 1.60
c File: j1201_7.smnaivebi1.wcnf
c timeout
c final solution cost: 165
c CPU time: 64.938838
s UNKNOWN

c File: j1201_7.smbi1.wcnf
c timeout
c final solution cost: 135
c CPU time: 60.385310
s UNKNOWN


rcpsp/heur_output_bi_constraints/Log=1/heurj120.txt
encoding rcpsp/j120.sm/j12018_10.sm nv: 9594120 nc: 19397449 enctime: 190.19
encoding rcpsp/j120.sm/j12018_10.sm nv: 1580208 nc: 3191273 enctime: 25.40
c File: j12018_10.smnaivebi1.wcnf
c timeout
c final solution cost: 130
c CPU time: 80.701876
s UNKNOWN

c File: j12018_10.smbi1.wcnf
c timeout
c final solution cost: 94
c CPU time: 62.979834
s UNKNOWN


rcpsp/heur_output_bi_constraints/Log=1/heurj120.txt
encoding rcpsp/j120.sm/j12018_1.sm nv: 7694844 nc: 15668805 enctime: 166.29
encoding rcpsp/j120.sm/j12018_1.sm nv: 1749316 nc: 3558365 enctime: 26.18
c File: j12018_1.smnaivebi1.wcnf
c timeout
c final solution cost: 207
c CPU time: 77.336793
s UNKNOWN

c File: j12018_1.smbi1.wcnf
c timeout
c final solution cost: 140
c CPU time: 63.438244
s UNKNOWN


rcpsp/heur_output_bi_constraints/Log=1/heurj120.txt
encoding rcpsp/j120.sm/j12018_2.sm nv: 7958639 nc: 16162244 enctime: 165.05
encoding rcpsp/j120.sm/j12018_2.sm nv: 1628691 nc: 3303972 enctime: 24.66
c File: j12018_2.smnaivebi1.wcnf
c timeout
c final solution cost: 431
c CPU time: 77.931376
s UNKNOWN

c File: j12018_2.smbi1.wcnf
c timeout
c final solution cost: 116
c CPU time: 63.009834
s UNKNOWN


rcpsp/heur_output_bi_constraints/Log=1/heurj120.txt
encoding rcpsp/j120.sm/j12018_3.sm nv: 8932440 nc: 18064732 enctime: 180.01
encoding rcpsp/j120.sm/j12018_3.sm nv: 1556410 nc: 3144267 enctime: 25.02
c File: j12018_3.smnaivebi1.wcnf
c timeout
c final solution cost: 220
c CPU time: 79.880879
s UNKNOWN

c File: j12018_3.smbi1.wcnf
c timeout
c final solution cost: 102
c CPU time: 63.060189
s UNKNOWN


rcpsp/heur_output_bi_constraints/Log=1/heurj120.txt
encoding rcpsp/j120.sm/j12018_4.sm nv: 8444052 nc: 17087493 enctime: 165.59
encoding rcpsp/j120.sm/j12018_4.sm nv: 1489365 nc: 3010575 enctime: 31.79
c File: j12018_4.smnaivebi1.wcnf
c timeout
c final solution cost: 158
c CPU time: 78.820088
s UNKNOWN

c File: j12018_4.smbi1.wcnf
c timeout
c CPU time: 62.209103
s UNKNOWN


rcpsp/heur_output_bi_constraints/Log=1/heurj120.txt
encoding rcpsp/j120.sm/j12018_5.sm nv: 8293802 nc: 16818507 enctime: 168.88
encoding rcpsp/j120.sm/j12018_5.sm nv: 1666057 nc: 3374992 enctime: 25.21
c File: j12018_5.smnaivebi1.wcnf
c timeout
c final solution cost: 556
c CPU time: 78.084375
s UNKNOWN

c File: j12018_5.smbi1.wcnf
c timeout
c final solution cost: 120
c CPU time: 63.287886
s UNKNOWN


rcpsp/heur_output_bi_constraints/Log=1/heurj120.txt
encoding rcpsp/j120.sm/j12018_6.sm nv: 6200385 nc: 12618645 enctime: 132.95
encoding rcpsp/j120.sm/j12018_6.sm nv: 1557306 nc: 3166335 enctime: 22.61
c File: j12018_6.smnaivebi1.wcnf
c timeout
c final solution cost: 155
c CPU time: 74.269249
s UNKNOWN

c File: j12018_6.smbi1.wcnf
c timeout
c final solution cost: 137
c CPU time: 63.048285
s UNKNOWN


rcpsp/heur_output_bi_constraints/Log=1/heurj120.txt
encoding rcpsp/j120.sm/j12018_7.sm nv: 6881838 nc: 13972159 enctime: 141.37
encoding rcpsp/j120.sm/j12018_7.sm nv: 1427502 nc: 2895039 enctime: 21.37
c File: j12018_7.smnaivebi1.wcnf
c timeout
c final solution cost: 308
c CPU time: 75.671745
s UNKNOWN

c File: j12018_7.smbi1.wcnf
c timeout
c final solution cost: 120
c CPU time: 62.797250
s UNKNOWN


rcpsp/heur_output_bi_constraints/Log=1/heurj120.txt
encoding rcpsp/j120.sm/j12018_8.sm nv: 7588440 nc: 15371845 enctime: 155.36
encoding rcpsp/j120.sm/j12018_8.sm nv: 1477500 nc: 2989695 enctime: 22.88
c File: j12018_8.smnaivebi1.wcnf
c timeout
c final solution cost: 568
c CPU time: 76.883275
s UNKNOWN

c File: j12018_8.smbi1.wcnf
c timeout
c final solution cost: 109
c CPU time: 62.895175
s UNKNOWN


rcpsp/heur_output_bi_constraints/Log=1/heurj120.txt
encoding rcpsp/j120.sm/j12018_9.sm nv: 9752106 nc: 19708861 enctime: 193.77
encoding rcpsp/j120.sm/j12018_9.sm nv: 1634997 nc: 3300733 enctime: 26.33
c File: j12018_9.smnaivebi1.wcnf
c timeout
c final solution cost: 249
c CPU time: 80.973999
s UNKNOWN

c File: j12018_9.smbi1.wcnf
c timeout
c CPU time: 62.397940
s UNKNOWN


rcpsp/heur_output_bi_constraints/Log=1/heurj120.txt
encoding rcpsp/j120.sm/j1201_8.sm nv: 578124 nc: 1414450 enctime: 28.39
encoding rcpsp/j120.sm/j1201_8.sm nv: 116352 nc: 281610 enctime: 2.87
c File: j1201_8.smnaivebi1.wcnf
c timeout
c final solution cost: 100
c CPU time: 64.190442
s UNKNOWN

c File: j1201_8.smbi1.wcnf
c timeout
c final solution cost: 100
c CPU time: 60.330338
s UNKNOWN


rcpsp/heur_output_bi_constraints/Log=1/heurj120.txt
encoding rcpsp/j120.sm/j12019_10.sm nv: 11872368 nc: 23948250 enctime: 241.36
encoding rcpsp/j120.sm/j12019_10.sm nv: 1620510 nc: 3264835 enctime: 17.13
c File: j12019_10.smnaivebi1.wcnf
c timeout
c final solution cost: 103
c CPU time: 84.868978
s UNKNOWN

c File: j12019_10.smbi1.wcnf
c timeout
c final solution cost: 76
c CPU time: 63.125427
s UNKNOWN


rcpsp/heur_output_bi_constraints/Log=1/heurj120.txt
encoding rcpsp/j120.sm/j12019_1.sm nv: 10965642 nc: 22067024 enctime: 209.21
encoding rcpsp/j120.sm/j12019_1.sm nv: 1611564 nc: 3239786 enctime: 27.20
c File: j12019_1.smnaivebi1.wcnf
c timeout
c CPU time: 78.589485
s UNKNOWN

c File: j12019_1.smbi1.wcnf
c timeout
c final solution cost: 70
c CPU time: 63.018369
s UNKNOWN


rcpsp/heur_output_bi_constraints/Log=1/heurj120.txt
encoding rcpsp/j120.sm/j12019_2.sm nv: 11988750 nc: 24173161 enctime: 240.63
encoding rcpsp/j120.sm/j12019_2.sm nv: 1615875 nc: 3254281 enctime: 17.05
c File: j12019_2.smnaivebi1.wcnf
c timeout
c final solution cost: 89
c CPU time: 84.950453
s UNKNOWN

c File: j12019_2.smbi1.wcnf
c timeout
c final solution cost: 80
c CPU time: 63.139738
s UNKNOWN


rcpsp/heur_output_bi_constraints/Log=1/heurj120.txt
encoding rcpsp/j120.sm/j12019_3.sm nv: 9590001 nc: 19344570 enctime: 187.37
encoding rcpsp/j120.sm/j12019_3.sm nv: 1391373 nc: 2803190 enctime: 23.54
c File: j12019_3.smnaivebi1.wcnf
c timeout
c final solution cost: 332
c CPU time: 80.633758
s UNKNOWN

c File: j12019_3.smbi1.wcnf
c timeout
c final solution cost: 85
c CPU time: 62.764022
s UNKNOWN


rcpsp/heur_output_bi_constraints/Log=1/heurj120.txt
encoding rcpsp/j120.sm/j12019_4.sm nv: 8154685 nc: 16508503 enctime: 164.04
encoding rcpsp/j120.sm/j12019_4.sm nv: 1608320 nc: 3252700 enctime: 24.66
c File: j12019_4.smnaivebi1.wcnf
c timeout
c final solution cost: 555
c CPU time: 77.648936
s UNKNOWN

c File: j12019_4.smbi1.wcnf
c timeout
c final solution cost: 107
c CPU time: 63.215418
s UNKNOWN


rcpsp/heur_output_bi_constraints/Log=1/heurj120.txt
encoding rcpsp/j120.sm/j12019_5.sm nv: 8433762 nc: 17087098 enctime: 171.70
encoding rcpsp/j120.sm/j12019_5.sm nv: 1476534 nc: 2988050 enctime: 23.46
c File: j12019_5.smnaivebi1.wcnf
c timeout
c final solution cost: 655
c CPU time: 79.961402
s UNKNOWN

c File: j12019_5.smbi1.wcnf
c timeout
c final solution cost: 106
c CPU time: 62.937559
s UNKNOWN


rcpsp/heur_output_bi_constraints/Log=1/heurj120.txt
encoding rcpsp/j120.sm/j12019_6.sm nv: 10591038 nc: 21381141 enctime: 212.97
encoding rcpsp/j120.sm/j12019_6.sm nv: 1546479 nc: 3118323 enctime: 26.81
c File: j12019_6.smnaivebi1.wcnf
c timeout
c final solution cost: 100
c CPU time: 82.584214
s UNKNOWN

c File: j12019_6.smbi1.wcnf
c timeout
c final solution cost: 87
c CPU time: 63.079653
s UNKNOWN


rcpsp/heur_output_bi_constraints/Log=1/heurj120.txt
encoding rcpsp/j120.sm/j12019_7.sm nv: 10658250 nc: 21509353 enctime: 212.61
encoding rcpsp/j120.sm/j12019_7.sm nv: 1515840 nc: 3055465 enctime: 26.17
c File: j12019_7.smnaivebi1.wcnf
c timeout
c final solution cost: 135
c CPU time: 82.129419
s UNKNOWN

c File: j12019_7.smbi1.wcnf
c timeout
c final solution cost: 85
c CPU time: 62.926862
s UNKNOWN


rcpsp/heur_output_bi_constraints/Log=1/heurj120.txt
encoding rcpsp/j120.sm/j12019_8.sm nv: 10305400 nc: 20818567 enctime: 208.75
encoding rcpsp/j120.sm/j12019_8.sm nv: 1530655 nc: 3088429 enctime: 26.44
c File: j12019_8.smnaivebi1.wcnf
c timeout
c final solution cost: 390
c CPU time: 81.866795
s UNKNOWN

c File: j12019_8.smbi1.wcnf
c timeout
c CPU time: 62.236900
s UNKNOWN


rcpsp/heur_output_bi_constraints/Log=1/heurj120.txt
encoding rcpsp/j120.sm/j12019_9.sm nv: 9436025 nc: 19041633 enctime: 184.73
encoding rcpsp/j120.sm/j12019_9.sm nv: 1570225 nc: 3165313 enctime: 25.28
c File: j12019_9.smnaivebi1.wcnf
c timeout
c final solution cost: 96
c CPU time: 80.285937
s UNKNOWN

c File: j12019_9.smbi1.wcnf
c timeout
c final solution cost: 88
c CPU time: 63.051518
s UNKNOWN


rcpsp/heur_output_bi_constraints/Log=1/heurj120.txt
encoding rcpsp/j120.sm/j1201_9.sm nv: 629726 nc: 1569910 enctime: 32.15
encoding rcpsp/j120.sm/j1201_9.sm nv: 125392 nc: 309075 enctime: 3.14
c File: j1201_9.smnaivebi1.wcnf
c timeout
c final solution cost: 91
c CPU time: 64.882219
s UNKNOWN

c File: j1201_9.smbi1.wcnf
c timeout
c final solution cost: 91
c CPU time: 60.385095
s UNKNOWN


rcpsp/heur_output_bi_constraints/Log=1/heurj120.txt
encoding rcpsp/j120.sm/j12020_10.sm nv: 13285166 nc: 26745532 enctime: 254.90
encoding rcpsp/j120.sm/j12020_10.sm nv: 1749566 nc: 3518332 enctime: 30.65
c File: j12020_10.smnaivebi1.wcnf
c timeout
c final solution cost: 74
c CPU time: 86.363588
s UNKNOWN

c File: j12020_10.smbi1.wcnf
c timeout
c final solution cost: 71
c CPU time: 63.318765
s UNKNOWN


rcpsp/heur_output_bi_constraints/Log=1/heurj120.txt
encoding rcpsp/j120.sm/j12020_1.sm nv: 10756326 nc: 21685546 enctime: 210.45
encoding rcpsp/j120.sm/j12020_1.sm nv: 1536618 nc: 3094414 enctime: 26.41
c File: j12020_1.smnaivebi1.wcnf
c timeout
c final solution cost: 413
c CPU time: 82.270027
s UNKNOWN

c File: j12020_1.smbi1.wcnf
c timeout
c final solution cost: 78
c CPU time: 62.964731
s UNKNOWN


rcpsp/heur_output_bi_constraints/Log=1/heurj120.txt
encoding rcpsp/j120.sm/j12020_2.sm nv: 10539540 nc: 21255670 enctime: 208.53
encoding rcpsp/j120.sm/j12020_2.sm nv: 1580931 nc: 3184738 enctime: 27.05
c File: j12020_2.smnaivebi1.wcnf
c timeout
c final solution cost: 112
c CPU time: 82.099784
s UNKNOWN

c File: j12020_2.smbi1.wcnf
c timeout
c final solution cost: 83
c CPU time: 63.061967
s UNKNOWN


rcpsp/heur_output_bi_constraints/Log=1/heurj120.txt
encoding rcpsp/j120.sm/j12020_3.sm nv: 13290312 nc: 26790990 enctime: 260.21
encoding rcpsp/j120.sm/j12020_3.sm nv: 1612632 nc: 3246630 enctime: 29.64
c File: j12020_3.smnaivebi1.wcnf
c timeout
c CPU time: 82.372753
s UNKNOWN

c File: j12020_3.smbi1.wcnf
c timeout
c CPU time: 62.288807
s UNKNOWN


rcpsp/heur_output_bi_constraints/Log=1/heurj120.txt
encoding rcpsp/j120.sm/j12020_4.sm nv: 11445696 nc: 23032879 enctime: 226.77
encoding rcpsp/j120.sm/j12020_4.sm nv: 1428480 nc: 2871100 enctime: 15.09
c File: j12020_4.smnaivebi1.wcnf
c timeout
c final solution cost: 629
c CPU time: 83.199942
s UNKNOWN

c File: j12020_4.smbi1.wcnf
c timeout
c final solution cost: 67
c CPU time: 62.738890
s UNKNOWN


rcpsp/heur_output_bi_constraints/Log=1/heurj120.txt
encoding rcpsp/j120.sm/j12020_5.sm nv: 12602646 nc: 25306045 enctime: 237.89
encoding rcpsp/j120.sm/j12020_5.sm nv: 1345110 nc: 2697949 enctime: 26.13
c File: j12020_5.smnaivebi1.wcnf
c timeout
c final solution cost: 88
c CPU time: 85.093462
s UNKNOWN

c File: j12020_5.smbi1.wcnf
c timeout
c final solution cost: 58
c CPU time: 62.613161
s UNKNOWN


rcpsp/heur_output_bi_constraints/Log=1/heurj120.txt
encoding rcpsp/j120.sm/j12020_6.sm nv: 11676126 nc: 23444863 enctime: 224.53
encoding rcpsp/j120.sm/j12020_6.sm nv: 1349502 nc: 2706607 enctime: 25.92
c File: j12020_6.smnaivebi1.wcnf
c timeout
c final solution cost: 198
c CPU time: 77.803021
s UNKNOWN

c File: j12020_6.smbi1.wcnf
c timeout
c final solution cost: 55
c CPU time: 61.813809
s UNKNOWN


rcpsp/heur_output_bi_constraints/Log=1/heurj120.txt
encoding rcpsp/j120.sm/j12020_7.sm nv: 11280967 nc: 22669164 enctime: 145.56
encoding rcpsp/j120.sm/j12020_7.sm nv: 1431308 nc: 2873091 enctime: 13.44
c File: j12020_7.smnaivebi1.wcnf
c timeout
c CPU time: 75.457415
s UNKNOWN

c File: j12020_7.smbi1.wcnf
c timeout
c CPU time: 61.650458
s UNKNOWN


rcpsp/heur_output_bi_constraints/Log=1/heurj120.txt
encoding rcpsp/j120.sm/j12020_8.sm nv: 9535078 nc: 19278734 enctime: 126.62
encoding rcpsp/j120.sm/j12020_8.sm nv: 1697640 nc: 3428794 enctime: 19.18
c File: j12020_8.smnaivebi1.wcnf
c timeout
c final solution cost: 372
c CPU time: 76.383053
s UNKNOWN

c File: j12020_8.smbi1.wcnf
c timeout
c final solution cost: 98
c CPU time: 62.369159
s UNKNOWN


rcpsp/heur_output_bi_constraints/Log=1/heurj120.txt
encoding rcpsp/j120.sm/j12020_9.sm nv: 17914050 nc: 35985257 enctime: 230.45
encoding rcpsp/j120.sm/j12020_9.sm nv: 1653225 nc: 3316650 enctime: 21.59
c File: j12020_9.smnaivebi1.wcnf
c optimal
c final solution cost: 59
c CPU time: 46.674700
s OPTIMUM FOUND

c File: j12020_9.smbi1.wcnf
c optimal
c final solution cost: 59
c CPU time: 4.248027
s OPTIMUM FOUND


